(set-logic QF_FP)
(set-info :smt-lib-version 2.0)
(set-info :category "crafted")
(set-info :source |Alberto Griggio <griggio@fbk.eu>. These benchmarks were used for the evaluation in the following paper: L. Haller, A. Griggio, M. Brain, D. Kroening: Deciding floating-point logic with systematic abstraction. FMCAD 2012. Real-numbered literals have been automatically translated by MathSAT|)
(set-info :status unknown)
;; MathSAT API call trace
;; generated on 05/20/15 17:24:51

(declare-fun b34 () (_ FloatingPoint 11 53))
(declare-fun b31 () (_ FloatingPoint 11 53))
(declare-fun b22 () (_ FloatingPoint 11 53))
(declare-fun b12 () (_ FloatingPoint 11 53))
(declare-fun b27 () (_ FloatingPoint 11 53))
(declare-fun b16 () (_ FloatingPoint 11 53))
(declare-fun b10 () (_ FloatingPoint 11 53))
(declare-fun b24 () (_ FloatingPoint 11 53))
(define-fun _t_3 () RoundingMode RNE)
(define-fun _t_9 () (_ FloatingPoint 11 53) b10)
(define-fun _t_10 () (_ FloatingPoint 11 53) b16)
(define-fun _t_11 () (_ FloatingPoint 11 53) (fp.add _t_3 _t_9 _t_10))
(define-fun _t_12 () (_ FloatingPoint 11 53) b12)
(define-fun _t_13 () Bool (fp.lt _t_12 _t_11))
(define-fun _t_14 () Bool (fp.leq _t_9 _t_12))
(define-fun _t_15 () Bool (and _t_13 _t_14))
(define-fun _t_16 () (_ FloatingPoint 11 53) b24)
(define-fun _t_17 () Bool (fp.leq _t_9 _t_16))
(define-fun _t_18 () Bool (and _t_15 _t_17))
(define-fun _t_19 () (_ FloatingPoint 11 53) b27)
(define-fun _t_20 () Bool (fp.leq _t_19 _t_9))
(define-fun _t_21 () Bool (and _t_18 _t_20))
(define-fun _t_22 () (_ FloatingPoint 11 53) b22)
(define-fun _t_23 () (_ FloatingPoint 11 53) b31)
(define-fun _t_24 () Bool (fp.leq _t_22 _t_23))
(define-fun _t_25 () Bool (and _t_21 _t_24))
(define-fun _t_26 () (_ FloatingPoint 11 53) b34)
(define-fun _t_27 () Bool (fp.leq _t_26 _t_22))
(define-fun _t_28 () Bool (and _t_25 _t_27))
(assert _t_28)
(check-sat)
